 N O
   1.0
     5.3979301599999996    0.0000000000000000    0.0000000000000000
    -2.6989650900000002    4.6747446600000000    0.0000000000000000
     0.0000000000000000    0.0000000000000000    6.5836890400000003
 N O
   4  10
Direct
   0.3333333300000000  0.6666666700000000  0.2500000000000000
   0.0000000000000000  0.0000000000000000  0.7500000000000000
   0.6666666700000000  0.3333333300000000  0.7500000000000000
   0.0000000000000000  0.0000000000000000  0.2500000000000000
   0.6666666700000000  0.3333333300000000  0.5770765900000000
   0.3333333300000000  0.6666666700000000  0.4229234100000000
   0.1351606800000000  0.8648393200000000  0.7500000000000000
   0.3333333300000000  0.6666666700000000  0.0770765900000000
   0.1351606800000000  0.2703213500000000  0.7500000000000000
   0.8648393200000000  0.1351606800000000  0.2500000000000000
   0.2703213500000000  0.1351606800000000  0.2500000000000000
   0.7296786500000000  0.8648393200000000  0.7500000000000000
   0.6666666700000000  0.3333333300000000  0.9229234100000000
   0.8648393200000000  0.7296786500000000  0.2500000000000000