 H Ca Br
   1.0
     3.8066392599999999    0.0000000000000000    0.0000000000000000
     0.0000000000000000    3.8066392599999999    0.0000000000000000
     0.0000000000000000    0.0000000000000000    7.7513048900000001
 H Ca Br
   2   2   2
Direct
   0.5000000000000000  0.5000000000000000  0.0000000000000000
   0.0000000000000000  0.0000000000000000  0.0000000000000000
   0.0000000000000000  0.5000000000000000  0.1642183100000000
   0.5000000000000000  0.0000000000000000  0.8357816900000000
   0.0000000000000000  0.5000000000000000  0.6702237500000000
   0.5000000000000000  0.0000000000000000  0.3297762500000000